NAME : XML100_1353_06
DIMENSION : 101
NB_CLUSTERS : 10
CLUSTERING_ALG : DBSCAN
CLUSTERING_PARAMS : eps(84), minSamples(3)
CLUSTERS
1 0
2 1 2 8 11 25 26 31 34 38 40 46 47 56 57 60 63 65 72 73 75 77 81 90 94 98
3 4 16 17 19 20 22 24 27 36 39 42 48 49 50 53 55 58 59 62 82 86 88 93 97
4 5 10 14 28 29 30 33 35 37 41 45 51 54 67 69 74 78 79 83 84 92 96 99
5 6 15 21 43 80
6 9 12 44 52 61 66 70 95
7 13 23 64 68 71 76 91
8 7 18 87 100
9 3 32
10 85 89
EOF